c Generated map
c Size: 8 * 8, weights in range: 1 to 10, walls: True, with ratio 0.1
c dim 10 of 10
c
p sp 64 90
c graph contains 64 nodes and 90 arcs
c
a 1 9 4
a 9 1 4
a 1 2 1
a 2 1 1
a 2 3 3
a 3 2 3
a 3 11 8
a 11 3 8
a 3 4 4
a 4 3 4
a 4 5 4
a 5 4 4
a 5 13 9
a 13 5 9
a 5 6 6
a 6 5 6
a 6 14 2
a 14 6 2
a 6 7 10
a 7 6 10
a 7 15 6
a 15 7 6
a 7 8 6
a 8 7 6
a 8 16 8
a 16 8 8
a 9 17 6
a 17 9 6
a 11 19 3
a 19 11 3
a 13 21 7
a 21 13 7
a 13 14 2
a 14 13 2
a 14 22 2
a 22 14 2
a 14 15 6
a 15 14 6
a 15 23 8
a 23 15 8
a 15 16 5
a 16 15 5
a 16 24 1
a 24 16 1
a 17 25 7
a 25 17 7
a 17 18 8
a 18 17 8
a 18 26 1
a 26 18 1
a 18 19 5
a 19 18 5
a 19 27 7
a 27 19 7
a 21 29 2
a 29 21 2
a 21 22 4
a 22 21 4
a 22 30 5
a 30 22 5
a 22 23 9
a 23 22 9
a 23 31 3
a 31 23 3
a 23 24 7
a 24 23 7
a 24 32 7
a 32 24 7
a 25 33 7
a 33 25 7
a 25 26 3
a 26 25 3
a 26 34 10
a 34 26 10
a 26 27 3
a 27 26 3
a 27 28 8
a 28 27 8
a 28 36 3
a 36 28 3
a 28 29 2
a 29 28 2
a 29 37 6
a 37 29 6
a 29 30 7
a 30 29 7
a 30 38 2
a 38 30 2
a 30 31 1
a 31 30 1
a 31 39 4
a 39 31 4
a 31 32 8
a 32 31 8
a 33 41 4
a 41 33 4
a 33 34 4
a 34 33 4
a 34 42 1
a 42 34 1
a 36 44 9
a 44 36 9
a 36 37 3
a 37 36 3
a 37 45 3
a 45 37 3
a 37 38 1
a 38 37 1
a 38 46 6
a 46 38 6
a 38 39 4
a 39 38 4
a 39 47 1
a 47 39 1
a 41 49 3
a 49 41 3
a 41 42 3
a 42 41 3
a 42 43 4
a 43 42 4
a 43 51 10
a 51 43 10
a 43 44 2
a 44 43 2
a 44 52 9
a 52 44 9
a 44 45 2
a 45 44 2
a 45 53 6
a 53 45 6
a 45 46 7
a 46 45 7
a 46 54 3
a 54 46 3
a 46 47 4
a 47 46 4
a 47 55 8
a 55 47 8
a 47 48 5
a 48 47 5
a 48 56 2
a 56 48 2
a 49 57 2
a 57 49 2
a 51 59 9
a 59 51 9
a 51 52 10
a 52 51 10
a 52 60 4
a 60 52 4
a 52 53 10
a 53 52 10
a 53 61 1
a 61 53 1
a 53 54 2
a 54 53 2
a 54 62 2
a 62 54 2
a 54 55 7
a 55 54 7
a 55 63 7
a 63 55 7
a 55 56 7
a 56 55 7
a 56 64 5
a 64 56 5
a 57 58 1
a 58 57 1
a 58 59 9
a 59 58 9
a 59 60 9
a 60 59 9
a 60 61 9
a 61 60 9
a 61 62 9
a 62 61 9
a 62 63 5
a 63 62 5
a 63 64 10
a 64 63 10
